231,406
441,284
444,443
627,512
576,551
406,681
227,637
231,406
740,397
1125,336
1028,229
937,323
894,298
880,342
470,115
427,152
510,351
627,512
600,566
576,551
444,443
488,140
589,121
1093,107
342,67
488,140
653,229
899,564
406,681
293,688
227,637
584,336
558,237
589,121
732,81
839,188
894,298
820,833
677,435
707,419
740,397
888,438
633,371
439,230
441,284
664,430
677,435
633,371
584,336
653,229
880,342
1214,490
1125,336
